BAYES
256
2 2 2 2 2 2 2 2 2 2 2 2 2 2 2 2 2 2 2 2 2 2 2 2 2 2 2 2 2 2 2 2 2 2 2 2 2 2 2 2 2 2 2 2 2 2 2 2 2 2 2 2 2 2 2 2 2 2 2 2 2 2 2 2 2 2 2 2 2 2 2 2 2 2 2 2 2 2 2 2 2 2 2 2 2 2 2 2 2 2 2 2 2 2 2 2 2 2 2 2 2 2 2 2 2 2 2 2 2 2 2 2 2 2 2 2 2 2 2 2 2 2 2 2 2 2 2 2 2 2 2 2 2 2 2 2 2 2 2 2 2 2 2 2 2 2 2 2 2 2 2 2 2 2 2 2 2 2 2 2 2 2 2 2 2 2 2 2 2 2 2 2 2 2 2 2 2 2 2 2 2 2 2 2 2 2 2 2 2 2 2 2 2 2 2 2 2 2 2 2 2 2 2 2 2 2 2 2 2 2 2 2 2 2 2 2 2 2 2 2 2 2 2 2 2 2 2 2 2 2 2 2 2 2 2 2 2 2 2 2 2 2 2 2 2 2 2 2 2 2 2 2 2 2 2 2
256
3 1 16 0
3 2 17 1
3 3 18 2
3 4 19 3
3 5 20 4
3 6 21 5
3 7 22 6
3 8 23 7
3 9 24 8
3 10 25 9
3 11 26 10
3 12 27 11
3 13 28 12
3 14 29 13
3 15 30 14
2 16 15
3 17 32 16
3 18 33 17
3 19 34 18
3 20 35 19
3 21 36 20
3 22 37 21
3 23 38 22
3 24 39 23
3 25 40 24
3 26 41 25
3 27 42 26
3 28 43 27
3 29 44 28
3 30 45 29
3 31 46 30
2 32 31
3 33 48 32
3 34 49 33
3 35 50 34
3 36 51 35
3 37 52 36
3 38 53 37
3 39 54 38
3 40 55 39
3 41 56 40
3 42 57 41
3 43 58 42
3 44 59 43
3 45 60 44
3 46 61 45
3 47 62 46
2 48 47
3 49 64 48
3 50 65 49
3 51 66 50
3 52 67 51
3 53 68 52
3 54 69 53
3 55 70 54
3 56 71 55
3 57 72 56
3 58 73 57
3 59 74 58
3 60 75 59
3 61 76 60
3 62 77 61
3 63 78 62
2 64 63
3 65 80 64
3 66 81 65
3 67 82 66
3 68 83 67
3 69 84 68
3 70 85 69
3 71 86 70
3 72 87 71
3 73 88 72
3 74 89 73
3 75 90 74
3 76 91 75
3 77 92 76
3 78 93 77
3 79 94 78
2 80 79
3 81 96 80
3 82 97 81
3 83 98 82
3 84 99 83
3 85 100 84
3 86 101 85
3 87 102 86
3 88 103 87
3 89 104 88
3 90 105 89
3 91 106 90
3 92 107 91
3 93 108 92
3 94 109 93
3 95 110 94
2 96 95
3 97 112 96
3 98 113 97
3 99 114 98
3 100 115 99
3 101 116 100
3 102 117 101
3 103 118 102
3 104 119 103
3 105 120 104
3 106 121 105
3 107 122 106
3 108 123 107
3 109 124 108
3 110 125 109
3 111 126 110
2 112 111
3 113 128 112
3 114 129 113
3 115 130 114
3 116 131 115
3 117 132 116
3 118 133 117
3 119 134 118
3 120 135 119
3 121 136 120
3 122 137 121
3 123 138 122
3 124 139 123
3 125 140 124
3 126 141 125
3 127 142 126
2 128 127
3 129 144 128
3 130 145 129
3 131 146 130
3 132 147 131
3 133 148 132
3 134 149 133
3 135 150 134
3 136 151 135
3 137 152 136
3 138 153 137
3 139 154 138
3 140 155 139
3 141 156 140
3 142 157 141
3 143 158 142
2 144 143
3 145 160 144
3 146 161 145
3 147 162 146
3 148 163 147
3 149 164 148
3 150 165 149
3 151 166 150
3 152 167 151
3 153 168 152
3 154 169 153
3 155 170 154
3 156 171 155
3 157 172 156
3 158 173 157
3 159 174 158
2 160 159
3 161 176 160
3 162 177 161
3 163 178 162
3 164 179 163
3 165 180 164
3 166 181 165
3 167 182 166
3 168 183 167
3 169 184 168
3 170 185 169
3 171 186 170
3 172 187 171
3 173 188 172
3 174 189 173
3 175 190 174
2 176 175
3 177 192 176
3 178 193 177
3 179 194 178
3 180 195 179
3 181 196 180
3 182 197 181
3 183 198 182
3 184 199 183
3 185 200 184
3 186 201 185
3 187 202 186
3 188 203 187
3 189 204 188
3 190 205 189
3 191 206 190
2 192 191
3 193 208 192
3 194 209 193
3 195 210 194
3 196 211 195
3 197 212 196
3 198 213 197
3 199 214 198
3 200 215 199
3 201 216 200
3 202 217 201
3 203 218 202
3 204 219 203
3 205 220 204
3 206 221 205
3 207 222 206
2 208 207
3 209 224 208
3 210 225 209
3 211 226 210
3 212 227 211
3 213 228 212
3 214 229 213
3 215 230 214
3 216 231 215
3 217 232 216
3 218 233 217
3 219 234 218
3 220 235 219
3 221 236 220
3 222 237 221
3 223 238 222
2 224 223
3 225 240 224
3 226 241 225
3 227 242 226
3 228 243 227
3 229 244 228
3 230 245 229
3 231 246 230
3 232 247 231
3 233 248 232
3 234 249 233
3 235 250 234
3 236 251 235
3 237 252 236
3 238 253 237
3 239 254 238
2 240 239
2 256 240
2 257 241
2 258 242
2 259 243
2 260 244
2 261 245
2 262 246
2 263 247
2 264 248
2 265 249
2 266 250
2 267 251
2 268 252
2 269 253
2 270 254
1  255
8
1 0 0 1 1 0 0 1
8
0 1 0 1 0 1 1 0
8
0 1 0 1 1 0 0 1
8
1 0 1 0 1 0 0 1
8
1 0 1 0 0 1 1 0
8
1 0 1 0 1 0 0 1
8
0 1 0 1 0 1 0 1
8
0 1 0 1 0 1 0 1
8
0 1 0 1 1 0 0 1
8
1 0 1 0 0 1 0 1
8
1 0 0 1 1 0 0 1
8
0 1 1 0 1 0 0 1
8
0 1 0 1 0 1 1 0
8
1 0 1 0 0 1 1 0
8
1 0 1 0 0 1 1 0
4
0.5178263687485632 0.48217363125143675 0.8885049340910637 0.11149506590893618
8
0.09111926053878944 0.9088807394612105 0.5035191246823763 0.4964808753176237 0.14868274847918805 0.851317251520812 0.8214404709940827 0.17855952900591737
8
0.26558008593127963 0.7344199140687203 0.26080190830227207 0.7391980916977279 0.49856577765450033 0.5014342223454996 0.6383139255646523 0.3616860744353478
8
1 0 0 1 1 0 0 1
8
1 0 1 0 1 0 0 1
8
1 0 1 0 1 0 1 0
8
1 0 1 0 0 1 0 1
8
0.667903887343548 0.33209611265645206 0.6861766627693975 0.3138233372306026 0.8146420844741458 0.1853579155258543 0.0022088839610277817 0.9977911160389722
8
1 0 0 1 0 1 1 0
8
0 1 1 0 0 1 1 0
8
1 0 0 1 0 1 0 1
8
0 1 0 1 1 0 0 1
8
1 0 0 1 0 1 0 1
8
0 1 1 0 0 1 0 1
8
0 1 0 1 1 0 0 1
8
0 1 0 1 0 1 1 0
4
0 1 0 1
8
0 1 1 0 0 1 0 1
8
1 0 1 0 1 0 1 0
8
1 0 1 0 1 0 1 0
8
0 1 1 0 1 0 1 0
8
1 0 0 1 0 1 1 0
8
1 0 0 1 1 0 0 1
8
0 1 1 0 1 0 1 0
8
1 0 0 1 1 0 1 0
8
1 0 1 0 1 0 1 0
8
0 1 0 1 1 0 1 0
8
0 1 1 0 1 0 0 1
8
0 1 0 1 1 0 1 0
8
0.7582638698973795 0.24173613010262052 0.5962084518004721 0.403791548199528 0.4589773063257824 0.5410226936742176 0.3687203786740211 0.6312796213259789
8
1 0 1 0 0 1 0 1
8
1 0 1 0 1 0 0 1
4
0 1 1 0
8
0 1 0 1 1 0 0 1
8
0 1 0 1 1 0 0 1
8
1 0 0 1 0 1 0 1
8
1 0 1 0 1 0 1 0
8
0 1 0 1 1 0 1 0
8
0.8706904664172448 0.12930953358275526 0.3755400325861453 0.6244599674138547 0.6394333524985667 0.3605666475014333 0.9556351241215597 0.04436487587844032
8
1 0 0 1 1 0 1 0
8
0 1 0 1 0 1 0 1
8
0 1 0 1 0 1 1 0
8
0 1 0 1 0 1 1 0
8
0 1 0 1 0 1 0 1
8
1 0 1 0 0 1 1 0
8
0.19888636141097468 0.8011136385890253 0.11155975378393708 0.8884402462160629 0.9958290696071068 0.004170930392893215 0.44432409763446024 0.5556759023655398
8
0 1 1 0 0 1 0 1
8
0.4722146778869174 0.5277853221130826 0.7942163342280387 0.20578366577196133 0.8583571658543764 0.14164283414562348 0.3814727823292508 0.6185272176707493
4
0 1 0 1
8
0 1 0 1 0 1 1 0
8
1 0 1 0 0 1 1 0
8
0 1 1 0 0 1 1 0
8
1 0 0 1 0 1 0 1
8
1 0 1 0 0 1 1 0
8
0 1 0 1 0 1 1 0
8
1 0 0 1 1 0 0 1
8
1 0 0 1 0 1 0 1
8
0 1 1 0 0 1 0 1
8
1 0 0 1 1 0 1 0
8
0 1 1 0 1 0 0 1
8
0 1 0 1 0 1 0 1
8
0 1 1 0 1 0 0 1
8
0 1 0 1 1 0 1 0
8
1 0 1 0 0 1 0 1
4
1 0 0 1
8
0 1 0 1 1 0 1 0
8
1 0 1 0 1 0 0 1
8
0 1 1 0 0 1 0 1
8
1 0 1 0 0 1 1 0
8
0 1 0 1 0 1 1 0
8
0.5716475973527092 0.42835240264729085 0.8761748327060266 0.12382516729397344 0.5946167602642124 0.40538323973578766 0.7299639847347645 0.2700360152652354
8
1 0 0 1 0 1 0 1
8
1 0 0 1 1 0 1 0
8
1 0 0 1 1 0 1 0
8
0 1 0 1 1 0 1 0
8
1 0 0 1 1 0 0 1
8
0 1 1 0 1 0 1 0
8
0 1 1 0 0 1 1 0
8
0 1 0 1 0 1 0 1
8
1 0 1 0 0 1 0 1
4
0 1 1 0
8
1 0 1 0 0 1 0 1
8
0 1 0 1 1 0 0 1
8
0.043396558720183526 0.9566034412798164 0.4483894375239414 0.5516105624760586 0.9889535987931337 0.01104640120686633 0.536412557581769 0.46358744241823097
8
1 0 0 1 1 0 0 1
8
1 0 0 1 1 0 1 0
8
1 0 1 0 1 0 0 1
8
1 0 1 0 1 0 0 1
8
1 0 1 0 0 1 1 0
8
1 0 1 0 1 0 1 0
8
1 0 0 1 1 0 0 1
8
0.9396876808085234 0.06031231919147664 0.345243869067986 0.654756130932014 0.5079808166814164 0.4920191833185836 0.654617633738787 0.345382366261213
8
1 0 1 0 0 1 0 1
8
0.570405191240776 0.42959480875922396 0.5625898398999715 0.43741016010002853 0.416881194510784 0.583118805489216 0.4700659146960054 0.5299340853039947
8
0 1 1 0 1 0 0 1
8
1 0 0 1 1 0 1 0
4
1 0 0 1
8
0 1 1 0 1 0 0 1
8
0 1 1 0 0 1 1 0
8
0 1 0 1 1 0 1 0
8
1 0 1 0 1 0 0 1
8
0 1 1 0 1 0 1 0
8
0 1 1 0 0 1 1 0
8
1 0 0 1 1 0 1 0
8
1 0 1 0 1 0 1 0
8
0 1 0 1 1 0 0 1
8
1 0 0 1 0 1 0 1
8
1 0 0 1 0 1 0 1
8
0 1 0 1 0 1 0 1
8
1 0 0 1 0 1 1 0
8
1 0 1 0 1 0 0 1
8
0.9279252862006431 0.07207471379935693 0.5228620764742292 0.4771379235257707 0.6783701511037048 0.3216298488962952 0.8851946033147539 0.11480539668524613
4
0 1 1 0
8
1 0 0 1 0 1 1 0
8
1 0 1 0 1 0 1 0
8
0.4169527348727796 0.5830472651272204 0.3765117900228548 0.6234882099771453 0.702989885095459 0.297010114904541 0.5812372458191843 0.4187627541808157
8
1 0 1 0 0 1 0 1
8
0 1 1 0 1 0 0 1
8
0 1 0 1 1 0 1 0
8
1 0 1 0 1 0 0 1
8
0 1 0 1 1 0 0 1
8
1 0 1 0 0 1 0 1
8
0 1 0 1 0 1 1 0
8
0.5321034288108606 0.4678965711891394 0.9289610959601492 0.07103890403985084 0.6922803546411505 0.3077196453588496 0.1779886630256784 0.8220113369743216
8
0 1 1 0 1 0 0 1
8
0.9604557320933641 0.03954426790663595 0.40838658878899475 0.5916134112110052 0.019196064721135015 0.980803935278865 0.6646998379998811 0.3353001620001189
8
0.660557978634999 0.3394420213650009 0.3666367432581475 0.6333632567418526 0.2554951376375753 0.7445048623624247 0.5976510514739869 0.4023489485260131
8
1 0 0 1 0 1 0 1
4
0 1 0 1
8
0 1 0 1 0 1 0 1
8
1 0 1 0 1 0 1 0
8
1 0 1 0 1 0 0 1
8
1 0 0 1 1 0 0 1
8
0 1 0 1 0 1 1 0
8
1 0 1 0 1 0 0 1
8
0 1 1 0 0 1 0 1
8
1 0 0 1 0 1 1 0
8
1 0 0 1 1 0 0 1
8
1 0 0 1 0 1 1 0
8
1 0 1 0 0 1 1 0
8
0 1 0 1 0 1 1 0
8
1 0 1 0 0 1 0 1
8
0 1 0 1 0 1 1 0
8
0 1 0 1 0 1 1 0
4
0 1 1 0
8
1 0 1 0 1 0 0 1
8
0 1 1 0 1 0 1 0
8
1 0 0 1 0 1 0 1
8
1 0 1 0 1 0 1 0
8
0 1 1 0 0 1 0 1
8
1 0 0 1 1 0 1 0
8
0 1 0 1 1 0 0 1
8
1 0 0 1 1 0 0 1
8
0 1 0 1 1 0 1 0
8
0.9605021825787908 0.039497817421209204 0.41854477449984945 0.5814552255001506 0.6030710446696562 0.3969289553303438 0.6410030613056948 0.3589969386943051
8
1 0 0 1 0 1 1 0
8
1 0 1 0 0 1 0 1
8
1 0 0 1 0 1 0 1
8
0 1 1 0 1 0 1 0
8
1 0 1 0 1 0 0 1
4
0 1 1 0
8
0 1 0 1 1 0 0 1
8
0 1 1 0 1 0 0 1
8
0 1 1 0 1 0 1 0
8
0 1 0 1 0 1 0 1
8
0.15617584557976702 0.843824154420233 0.4360840066532388 0.5639159933467612 0.6413484988620834 0.35865150113791644 0.4037825637115689 0.596217436288431
8
1 0 1 0 0 1 0 1
8
0 1 0 1 0 1 0 1
8
1 0 0 1 1 0 1 0
8
0 1 1 0 0 1 1 0
8
0.4601053235479613 0.5398946764520388 0.07881126309059143 0.9211887369094086 0.4053815801667288 0.5946184198332712 0.8847168808882241 0.11528311911177591
8
1 0 0 1 0 1 0 1
8
1 0 0 1 0 1 1 0
8
1 0 1 0 1 0 0 1
8
1 0 1 0 0 1 1 0
8
0 1 1 0 0 1 0 1
4
1 0 1 0
8
1 0 1 0 0 1 0 1
8
0 1 0 1 1 0 0 1
8
0 1 0 1 1 0 1 0
8
0 1 1 0 0 1 0 1
8
0.7109355729214522 0.2890644270785478 0.056655240688251854 0.9433447593117481 0.7869357336245202 0.21306426637547976 0.6811797596539523 0.31882024034604767
8
0 1 0 1 1 0 1 0
8
1 0 0 1 0 1 0 1
8
0.7465626378023289 0.2534373621976711 0.7688239353524745 0.2311760646475255 0.7618818155193243 0.2381181844806757 0.584270579875621 0.41572942012437897
8
0 1 0 1 0 1 1 0
8
1 0 1 0 0 1 1 0
8
0.1670605762468038 0.8329394237531962 0.3381971402444878 0.6618028597555122 0.6511157229073644 0.34888427709263564 0.5015188090056646 0.4984811909943355
8
1 0 1 0 1 0 1 0
8
0 1 0 1 1 0 0 1
8
0 1 1 0 0 1 0 1
8
1 0 0 1 1 0 1 0
4
1 0 1 0
8
0 1 0 1 1 0 1 0
8
1 0 1 0 1 0 0 1
8
1 0 0 1 0 1 1 0
8
0 1 0 1 1 0 0 1
8
1 0 0 1 1 0 1 0
8
1 0 1 0 1 0 0 1
8
1 0 0 1 1 0 1 0
8
0 1 1 0 0 1 0 1
8
0 1 1 0 1 0 0 1
8
0 1 0 1 0 1 0 1
8
0 1 0 1 1 0 1 0
8
0.12172007723684464 0.8782799227631554 0.43337180329079716 0.5666281967092027 0.13510871279470849 0.8648912872052915 0.6246569322417155 0.3753430677582845
8
1 0 1 0 0 1 0 1
8
1 0 0 1 0 1 1 0
8
0 1 1 0 0 1 0 1
4
0 1 1 0
8
1 0 1 0 0 1 0 1
8
1 0 1 0 1 0 1 0
8
0 1 1 0 1 0 0 1
8
0 1 0 1 0 1 0 1
8
1 0 1 0 1 0 0 1
8
0 1 1 0 1 0 0 1
8
1 0 0 1 1 0 0 1
8
0 1 1 0 1 0 0 1
8
1 0 0 1 1 0 1 0
8
1 0 0 1 1 0 1 0
8
0 1 1 0 0 1 1 0
8
1 0 1 0 0 1 0 1
8
1 0 1 0 0 1 1 0
8
1 0 0 1 1 0 1 0
8
0 1 0 1 0 1 0 1
4
1 0 1 0
4
1 0 1 0
4
1 0 0 1
4
1 0 1 0
4
0 1 1 0
4
1 0 0 1
4
0 1 0 1
4
0.4760421942361752 0.5239578057638248 0.42697415650647913 0.5730258434935209
4
1 0 0 1
4
1 0 0 1
4
0.009490933786335837 0.9905090662136642 0.988687016651065 0.011312983348935074
4
0 1 0 1
4
1 0 0 1
4
1 0 0 1
4
0 1 0 1
4
1 0 1 0
2
0 1
